1
1000
53
256 2000000
260 1000000
261 1000000
391 1000000
393 1000000
266 2000000
267 1000000
268 2000000
270 1000000
271 1000000
272 1000000
274 1000000
276 1000000
405 1000000
279 1000000
281 1000000
495 1000000
286 2000000
389 1000000
440 1000000
420 1000000
424 1000000
299 1000000
301 1000000
302 1000000
304 2000000
433 1000000
435 1000000
436 1000000
309 1000000
438 1000000
312 1000000
314 1000000
321 1000000
450 1000000
395 1000000
329 1000000
462 1000000
337 1000000
339 1000000
341 1000000
470 1000000
472 1000000
442 1000000
352 1000000
367 1000000
372 1000000
373 1000000
250 1000000
251 1000000
252 1000000
254 2000000
255 2000000
